proyfinal/src/viki/013/experimentInOfficeAgust.take6.output/c6a03b2d-c753-46e7-808f-ed3aa5719315.als.out
Reading from standard input... Use '--help' for help.
============================[ Problem Statistics ]=============================
|                                                                             |
|  Number of variables:         87638                                         |
|  Number of clauses:          161767                                         |
|  Parse time:                   0.04 s                                       |
|                                                                             |
============================[ Search Statistics ]==============================
| Conflicts |          ORIGINAL         |          LEARNT          | Progress |
|           |    Vars  Clauses Literals |    Limit  Clauses Lit/Cl |          |
===============================================================================
|       100 |   61893   103469   258484 |    37938      100     85 | 29.377 % |
|       250 |   61893   103469   258484 |    41732      250     85 | 29.377 % |
|       475 |   61893   103469   258484 |    45905      475     60 | 29.377 % |
|       812 |   61893   103469   258484 |    50496      812     75 | 29.377 % |
|      1318 |   61873   103391   258297 |    55545     1121    119 | 29.400 % |
|      2077 |   61673   102581   256178 |    61100     1640    138 | 29.628 % |
|      3216 |   61673   102581   256178 |    67210     2779    114 | 29.628 % |
===============================================================================
restarts              : 22
conflicts             : 4419           (6485 /sec)
decisions             : 16597          (0.00 % random) (24355 /sec)
propagations          : 7633393        (11201593 /sec)
conflict literals     : 440722         (51.41 % deleted)
Memory used           : 27.74 MB
CPU time              : 0.681456 s

UNSATISFIABLE
